9
0 48 74 79 24 83 18 8 57 
34 0 50 82 37 65 18 87 89 
47 56 0 15 90 33 74 35 13 
45 22 71 0 8 66 84 21 75 
10 12 57 99 0 86 94 45 79 
99 75 8 18 85 0 6 55 28 
76 43 93 12 12 67 0 80 77 
1 37 50 88 3 99 25 0 97 
28 59 53 38 64 15 79 56 0 
